# Solution for model count
# Objective value = 10
z#1 0
z#2 1
z#3 0
z#4 0
z#5 1
z#6 0
z#7 1
z#8 0
z#9 0
z#10 0
z#11 0
z#12 0
z#13 0
z#14 1
z#15 0
z#16 1
z#17 0
z#18 0
z#19 1
z#20 1
z#21 1
z#22 0
z#23 1
z#24 1
x#24 907
x#23 1425
x#22 0
x#21 2270
x#20 1122
x#19 1274
x#18 0
x#17 0
x#16 1843
x#15 0
x#14 772
x#13 0
x#12 0
x#11 0
x#10 0
x#9 0
x#8 0
x#7 70
x#6 0
x#5 213
x#4 0
x#3 0
x#2 104
x#1 0
